TCS_Benchmarks/redos_fix/regexlib2_output_distinct_284_283_16_0.txt
\S+
(\S+)([^ \]\}\n$\r):;,.?]+)
[^ \]\}\n$\r):;,.?]+